Minimize
  obj: x0 + x1 + x2 + x3 + x4 + x5 + x6 + x7

Subject To
  c0: x1 + x2 + x3 + x4 + x5 + x6 = 54
  c1: x0 + x2 + x6 = 20
  c2: x3 + x5 + x6 + x7 = 43
  c3: x0 + x1 + x2 + x3 = 25
  c4: x0 + x1 + x3 + x5 + x6 + x7 = 53
  c5: x1 + x3 + x6 + x7 = 40

Bounds
  x0 >= 0
  x1 >= 0
  x2 >= 0
  x3 >= 0
  x4 >= 0
  x5 >= 0
  x6 >= 0
  x7 >= 0

Generals
  x0 x1 x2 x3 x4 x5 x6 x7

End
